RLSolver/data/tsplib/ulysses22.opt.tour
NAME : ulysses22.opt.tour
TYPE : TOUR
COMMENT : Optimal solution of ulysses22 (7013)
DIMENSION : 22
TOUR_SECTION
1
14
13
12
7
6
15
5
11
9
10
19
20
21
16
3
2
17
22
4
18
8
-1
